9
2147483647 38 96 93 20 14 97 62 4 
38 2147483647 35 61 66 29 4 20 70 
96 35 2147483647 73 19 82 48 24 6 
93 61 73 2147483647 4 100 37 44 73 
20 66 19 4 2147483647 22 24 64 88 
14 29 82 100 22 2147483647 31 44 69 
97 4 48 37 24 31 2147483647 98 46 
62 20 24 44 64 44 98 2147483647 17 
4 70 6 73 88 69 46 17 2147483647 
